0 58506 
1 56040 
2 54498 
3 54122 
4 53350 
5 53340 
6 52756 
7 52672 
8 52462 
9 51756 
10 51306 
11 51228 
12 50814 
13 50486 
14 50052 
15 49766 
16 49222 
17 48818 
18 47904 
19 47594 
20 47182 
21 47154 
22 47024 
23 45496 
24 44518 
25 44250 
26 42800 
27 42772 
28 42572 
29 41636 
30 38838 
31 38766 
32 38754 
33 38572 
34 38552 
35 38354 
36 38312 
37 36972 
38 36828 
39 36646 
40 36092 
41 36080 
42 35938 
43 33300 
44 32316 
45 32300 
46 30544 
47 29664 
48 29662 
49 29394 
50 28642 
51 27056 
52 26850 
53 26814 
54 26756 
55 26522 
56 23406 
57 23180 
58 22922 
59 22250 
60 21878 
61 21444 
62 21258 
63 20290 
64 20206 
65 20120 
66 19358 
67 19238 
68 17574 
69 17382 
70 17256 
71 15732 
72 15156 
73 15112 
74 14154 
75 14138 
76 14120 
77 14120 

